(set-logic QF_S)
(declare-fun var0 () String)
(declare-fun var1 () String)
(declare-fun var2 () String)
(declare-fun var3 () String)
(declare-fun var4 () String)
(declare-fun var5 () String)
(declare-fun var6 () String)
(declare-fun var7 () String)
(declare-fun var8 () String)
(declare-fun var9 () String)
(declare-fun var10 () String)
(declare-fun var11 () String)
(declare-fun var12 () String)
(declare-fun var13 () String)
(declare-fun var14 () String)
(declare-fun var15 () String)
(declare-fun var16 () String)
(declare-fun var17 () String)
(declare-fun var18 () String)
(declare-fun var19 () String)
(declare-fun var20 () String)
(declare-fun var21 () String)
(declare-fun var22 () String)
(declare-fun var23 () String)
(declare-fun var24 () String)
(declare-fun var25 () String)
(declare-fun var26 () String)
(declare-fun var27 () String)
(declare-fun var28 () String)
(declare-fun var29 () String)
(declare-fun var30 () String)
(declare-fun var31 () String)
(declare-fun var32 () String)
(declare-fun var33 () String)
(declare-fun var34 () String)
(declare-fun var35 () String)
(declare-fun var36 () String)
(declare-fun var37 () String)
(declare-fun var38 () String)
(declare-fun var39 () String)
(declare-fun var40 () String)
(declare-fun var41 () String)
(declare-fun var42 () String)
(declare-fun var43 () String)
(declare-fun var44 () String)
(declare-fun var45 () String)
(declare-fun var46 () String)
(declare-fun var47 () String)
(declare-fun var48 () String)
(declare-fun var49 () String)
(declare-fun var50 () String)
(declare-fun var51 () String)
(declare-fun var52 () String)
(declare-fun var53 () String)
(declare-fun var54 () String)
(declare-fun var55 () String)
(declare-fun var56 () String)
(declare-fun var57 () String)
(declare-fun var58 () String)
(declare-fun var59 () String)
(declare-fun var60 () String)
(assert (= var0 (Concat var1 var2)))
(assert (= var2 (Concat var3 var4)))
(assert (= var4 (Concat var5 var6)))
(assert (= var6 (Concat var7 var8)))
(assert (= var8 (Concat var9 var10)))
(assert (= var10 (Concat var11 var12)))
(assert (= var12 (Concat var13 var14)))
(assert (= var14 (Concat var15 var16)))
(assert (= var16 (Concat var17 var18)))
(assert (= var18 (Concat var19 var20)))
(assert (= var20 (Concat var21 var22)))
(assert (= var22 (Concat var23 var24)))
(assert (= var24 (Concat var25 var26)))
(assert (= var26 (Concat var27 var28)))
(assert (= var28 (Concat var29 var30)))
(assert (= var30 (Concat var31 var32)))
(assert (= var32 (Concat var33 var34)))
(assert (= var34 (Concat var35 var36)))
(assert (= var36 (Concat var37 var38)))
(assert (= var38 (Concat var39 var40)))
(assert (= var40 (Concat var41 var42)))
(assert (= var42 (Concat var43 var44)))
(assert (= var44 (Concat var45 var46)))
(assert (= var46 (Concat var47 var48)))
(assert (= var48 (Concat var49 var50)))
(assert (= var50 (Concat var51 var52)))
(assert (= var52 (Concat var53 var54)))
(assert (= var54 (Concat var55 var56)))
(assert (= var56 (Concat var57 var58)))
(assert (= var58 (Concat var59 var60)))
(assert (= var0 "solution"))
(assert (= "a" (CharAt var13 438)))
(assert (= "V" (CharAt var60 302)))
(assert (= "G" (CharAt var31 994)))
(assert (= "]" (CharAt var3 934)))
(assert (= "h" (CharAt var3 657)))
(assert (= "/" (CharAt var44 409)))
(assert (= "I" (CharAt var32 96)))
(assert (= "d" (CharAt var29 803)))
(assert (= "M" (CharAt var8 853)))
(assert (= "!" (CharAt var57 657)))
(assert (= "c" (CharAt var39 250)))
(assert (= "<" (CharAt var14 813)))
(assert (= "l" (CharAt var30 830)))
(assert (= "%" (CharAt var33 146)))
(assert (= "i" (CharAt var23 891)))
(assert (= "L" (CharAt var40 137)))
(assert (= "4" (CharAt var15 437)))
(assert (= "^" (CharAt var42 713)))
(assert (= "x" (CharAt var4 182)))
(assert (= "4" (CharAt var25 223)))
(assert (= "L" (CharAt var26 587)))
(assert (= "}" (CharAt var5 850)))
(assert (= "0" (CharAt var43 117)))
(assert (= "B" (CharAt var36 596)))
(assert (= ":" (CharAt var0 679)))
(assert (= "V" (CharAt var21 764)))
(assert (= "I" (CharAt var11 273)))
(assert (= "P" (CharAt var48 991)))
(assert (= "-" (CharAt var44 859)))
(assert (= "H" (CharAt var36 53)))
(assert (= "F" (CharAt var49 361)))
(assert (= "!" (CharAt var10 893)))
(assert (= "@" (CharAt var7 263)))
(assert (= "D" (CharAt var13 322)))
(assert (= "L" (CharAt var44 412)))
(assert (= "~" (CharAt var3 357)))
(assert (= "|" (CharAt var14 641)))
(assert (= "F" (CharAt var1 672)))
(assert (= "," (CharAt var19 390)))
(assert (= "7" (CharAt var46 156)))
(assert (= "Y" (CharAt var36 700)))
(assert (= "J" (CharAt var8 473)))
(assert (= "K" (CharAt var9 343)))
(assert (= "f" (CharAt var49 884)))
(assert (= "9" (CharAt var60 700)))
(assert (= "3" (CharAt var21 758)))
(assert (= "i" (CharAt var51 282)))
(assert (= "C" (CharAt var36 99)))
(assert (= "]" (CharAt var52 663)))
(assert (= "r" (CharAt var27 436)))
(assert (= "+" (CharAt var5 86)))
(assert (= "t" (CharAt var54 806)))
(assert (= "d" (CharAt var0 970)))
(assert (= "<" (CharAt var36 60)))
(assert (= "s" (CharAt var39 873)))
(assert (= "\\" (CharAt var31 886)))
(assert (= "f" (CharAt var48 615)))
(assert (= "e" (CharAt var50 836)))
(assert (= "2" (CharAt var34 135)))
(assert (= "u" (CharAt var40 933)))
(assert (= "L" (CharAt var20 18)))
(assert (= "\"" (CharAt var44 469)))
(assert (= "+" (CharAt var7 472)))
(assert (= "j" (CharAt var11 546)))
(assert (= "l" (CharAt var42 277)))
(assert (= "3" (CharAt var36 711)))
(assert (= "E" (CharAt var53 613)))
(assert (= "]" (CharAt var20 938)))
(assert (= "4" (CharAt var18 852)))
(assert (= "(" (CharAt var13 530)))
(assert (= "l" (CharAt var3 656)))
(assert (= "<" (CharAt var50 728)))
(assert (= "%" (CharAt var53 97)))
(assert (= "L" (CharAt var25 857)))
(assert (= "Y" (CharAt var50 967)))
(assert (= "L" (CharAt var38 567)))
(assert (= "g" (CharAt var36 395)))
(assert (= "9" (CharAt var14 596)))
(assert (= "^" (CharAt var43 360)))
(assert (= "!" (CharAt var3 53)))
(assert (= "%" (CharAt var2 900)))
(assert (= "<" (CharAt var27 475)))
(assert (= "u" (CharAt var18 407)))
(assert (= "J" (CharAt var1 430)))
(assert (= "0" (CharAt var45 175)))
(assert (= "p" (CharAt var56 637)))
(assert (= "{" (CharAt var21 117)))
(assert (= "g" (CharAt var28 97)))
(assert (= "B" (CharAt var27 943)))
(assert (= "Z" (CharAt var38 419)))
(assert (= "Y" (CharAt var8 444)))
(assert (= "U" (CharAt var43 914)))
(assert (= "w" (CharAt var21 538)))
(assert (= "c" (CharAt var25 663)))
(assert (= "l" (CharAt var20 914)))
(assert (= "_" (CharAt var47 845)))
(assert (= "c" (CharAt var41 164)))
(assert (= "X" (CharAt var35 85)))
(assert (= "h" (CharAt var7 601)))
(assert (= ";" (CharAt var29 952)))
(assert (= "1" (CharAt var56 659)))
(assert (= "S" (CharAt var22 279)))
(assert (= "#" (CharAt var37 608)))
(assert (= "+" (CharAt var55 761)))
(assert (= "s" (CharAt var56 845)))
(assert (= "." (CharAt var46 122)))
(assert (= "`" (CharAt var13 38)))
(assert (= "X" (CharAt var15 468)))
(assert (= "F" (CharAt var10 335)))
(assert (= "%" (CharAt var5 596)))
(assert (= "o" (CharAt var42 498)))
(assert (= "q" (CharAt var52 68)))
(assert (= "d" (CharAt var5 398)))
(assert (= "2" (CharAt var22 545)))
(assert (= "8" (CharAt var0 345)))
(assert (= "c" (CharAt var23 934)))
(assert (= "(" (CharAt var29 918)))
(assert (= "h" (CharAt var8 650)))
(assert (= "}" (CharAt var40 17)))
(assert (= "d" (CharAt var44 262)))
(assert (= "+" (CharAt var1 174)))
(assert (= "E" (CharAt var3 543)))
(assert (= ";" (CharAt var5 500)))
(assert (= "7" (CharAt var44 236)))
(assert (= "y" (CharAt var53 516)))
(assert (= "A" (CharAt var57 122)))
(assert (= "_" (CharAt var46 727)))
(assert (= "g" (CharAt var54 400)))
(assert (= ")" (CharAt var11 269)))
(assert (= "(" (CharAt var45 754)))
(assert (= "8" (CharAt var15 389)))
(assert (= "1" (CharAt var29 621)))
(assert (= "1" (CharAt var25 570)))
(assert (= "R" (CharAt var13 257)))
(assert (= "I" (CharAt var26 108)))
(assert (= "K" (CharAt var47 391)))
(assert (= "X" (CharAt var56 294)))
(assert (= "j" (CharAt var8 829)))
(assert (= "L" (CharAt var41 795)))
(assert (= "W" (CharAt var36 714)))
(assert (= "o" (CharAt var24 487)))
(assert (= "Y" (CharAt var6 781)))
(assert (= "L" (CharAt var59 15)))
(assert (= "?" (CharAt var14 77)))
(assert (= "r" (CharAt var42 161)))
(assert (= "_" (CharAt var54 226)))
(assert (= "," (CharAt var6 109)))
(assert (= "`" (CharAt var5 515)))
(assert (= "H" (CharAt var32 780)))
(assert (= "&" (CharAt var53 37)))
(assert (= "H" (CharAt var52 338)))
(assert (= "?" (CharAt var14 467)))
(assert (= "O" (CharAt var53 227)))
(assert (= "6" (CharAt var3 499)))
(assert (= "0" (CharAt var45 815)))
(assert (= "-" (CharAt var55 41)))
(assert (= "i" (CharAt var51 257)))
(assert (= "f" (CharAt var49 776)))
(assert (= "[" (CharAt var21 568)))
(assert (= "R" (CharAt var20 688)))
(assert (= "F" (CharAt var60 934)))
(assert (= "m" (CharAt var7 462)))
(assert (= "'" (CharAt var52 922)))
(assert (= "[" (CharAt var27 347)))
(assert (= "*" (CharAt var33 626)))
(assert (= "F" (CharAt var17 342)))
(assert (= "c" (CharAt var60 235)))
(assert (= ">" (CharAt var48 728)))
(assert (= "2" (CharAt var42 342)))
(assert (= "N" (CharAt var33 950)))
(assert (= "9" (CharAt var50 442)))
(assert (= "]" (CharAt var57 231)))
(assert (= "m" (CharAt var8 702)))
(assert (= "[" (CharAt var52 758)))
(assert (= "W" (CharAt var1 606)))
(assert (= "p" (CharAt var40 339)))
(assert (= "," (CharAt var30 887)))
(assert (= "^" (CharAt var22 599)))
(assert (= "u" (CharAt var38 171)))
(assert (= "d" (CharAt var21 503)))
(assert (= "." (CharAt var1 416)))
(assert (= "J" (CharAt var4 502)))
(assert (= "U" (CharAt var35 612)))
(assert (= "k" (CharAt var55 717)))
(assert (= ">" (CharAt var45 922)))
(assert (= "@" (CharAt var11 945)))
(assert (= "n" (CharAt var12 990)))
(assert (= "," (CharAt var42 806)))
(assert (= "N" (CharAt var58 646)))
(assert (= "V" (CharAt var44 48)))
(assert (= "T" (CharAt var47 791)))
(assert (= "z" (CharAt var12 331)))
(assert (= "?" (CharAt var38 182)))
(assert (= "T" (CharAt var21 673)))
(assert (= "n" (CharAt var21 625)))
(assert (= "`" (CharAt var19 288)))
(assert (= "M" (CharAt var53 636)))
(assert (= "B" (CharAt var23 125)))
(assert (= "z" (CharAt var26 762)))
(assert (= "y" (CharAt var58 237)))
(assert (= "&" (CharAt var3 805)))
(assert (= "Y" (CharAt var58 487)))
(assert (= "Z" (CharAt var8 148)))
(assert (= "n" (CharAt var42 867)))
(assert (= "7" (CharAt var21 92)))
(assert (= "S" (CharAt var10 728)))
(assert (= "X" (CharAt var0 132)))
(assert (= "U" (CharAt var21 387)))
(assert (= "7" (CharAt var19 323)))
(assert (= "7" (CharAt var20 395)))
(assert (= "P" (CharAt var60 577)))
(assert (= "G" (CharAt var20 383)))
(assert (= "W" (CharAt var37 165)))
(assert (= "r" (CharAt var2 937)))
(assert (= ":" (CharAt var45 464)))
(assert (= ")" (CharAt var2 380)))
(assert (= "J" (CharAt var5 382)))
(assert (= "!" (CharAt var52 925)))
(assert (= "=" (CharAt var23 985)))
(assert (= "L" (CharAt var35 718)))
(assert (= "n" (CharAt var37 946)))
(assert (= "-" (CharAt var9 989)))
(assert (= "Q" (CharAt var59 742)))
(assert (= "`" (CharAt var21 809)))
(assert (= "." (CharAt var52 200)))
(assert (= "s" (CharAt var32 696)))
(assert (= "`" (CharAt var57 19)))
(assert (= "A" (CharAt var51 363)))
(assert (= "\\" (CharAt var12 37)))
(assert (= "E" (CharAt var15 565)))
(assert (= "q" (CharAt var46 747)))
(assert (= "P" (CharAt var10 619)))
(assert (= "]" (CharAt var50 721)))
(assert (= ">" (CharAt var45 594)))
(assert (= ";" (CharAt var59 450)))
(assert (= "+" (CharAt var22 569)))
(assert (= "3" (CharAt var18 959)))
(assert (= "L" (CharAt var17 495)))
(assert (= "G" (CharAt var1 872)))
(assert (= "A" (CharAt var54 442)))
(assert (= "Y" (CharAt var8 901)))
(assert (= "W" (CharAt var47 151)))
(assert (= "B" (CharAt var8 395)))
(assert (= "S" (CharAt var8 257)))
(assert (= "q" (CharAt var56 658)))
(assert (= "(" (CharAt var9 849)))
(assert (= "1" (CharAt var11 370)))
(assert (= "e" (CharAt var13 64)))
(assert (= "h" (CharAt var50 293)))
(assert (= "0" (CharAt var31 196)))
(assert (= "\\" (CharAt var46 784)))
(assert (= "~" (CharAt var51 927)))
(assert (= "T" (CharAt var29 522)))
(assert (= "R" (CharAt var42 198)))
(assert (= "Y" (CharAt var36 3)))
(assert (= "g" (CharAt var44 13)))
(assert (= "J" (CharAt var3 904)))
(assert (= "*" (CharAt var41 419)))
(assert (= "g" (CharAt var56 429)))
(assert (= "]" (CharAt var39 571)))
(assert (= "U" (CharAt var6 275)))
(assert (= "k" (CharAt var16 376)))
(assert (= "Q" (CharAt var9 104)))
(assert (= "X" (CharAt var28 293)))
(assert (= "O" (CharAt var32 829)))
(assert (= "+" (CharAt var8 995)))
(assert (= "%" (CharAt var13 617)))
(assert (= "C" (CharAt var15 841)))
(assert (= "f" (CharAt var4 828)))
(assert (= "5" (CharAt var25 349)))
(assert (= "-" (CharAt var35 814)))
(assert (= "Z" (CharAt var39 887)))
(assert (= "<" (CharAt var26 739)))
(assert (= "T" (CharAt var53 592)))
(assert (= "'" (CharAt var0 105)))
(assert (= "\"" (CharAt var17 481)))
(assert (= "p" (CharAt var51 539)))
(assert (= "K" (CharAt var51 488)))
(assert (= "H" (CharAt var17 121)))
(assert (= "L" (CharAt var35 539)))
(assert (= "{" (CharAt var49 575)))
(assert (= "=" (CharAt var58 782)))
(assert (= "C" (CharAt var20 321)))
(assert (= "2" (CharAt var19 6)))
(assert (= "." (CharAt var50 34)))
(assert (= "e" (CharAt var29 145)))
(assert (= ">" (CharAt var5 531)))
(assert (= "~" (CharAt var1 844)))
(assert (= "]" (CharAt var37 555)))
(assert (= ";" (CharAt var30 828)))
(assert (= "a" (CharAt var39 531)))
(assert (= "f" (CharAt var34 605)))
(assert (= "?" (CharAt var42 182)))
(assert (= "u" (CharAt var5 375)))
(assert (= "g" (CharAt var27 835)))
(assert (= "R" (CharAt var42 378)))
(assert (= "2" (CharAt var2 840)))
(assert (= "\\" (CharAt var25 900)))
(assert (= "a" (CharAt var30 102)))
(assert (= "0" (CharAt var39 67)))
(assert (= "R" (CharAt var29 903)))
(assert (= "h" (CharAt var8 896)))
(assert (= "k" (CharAt var44 29)))
(assert (= "b" (CharAt var58 840)))
(assert (= "V" (CharAt var15 706)))
(assert (= "C" (CharAt var52 265)))
(assert (= "~" (CharAt var34 270)))
(assert (= "e" (CharAt var41 120)))
(assert (= "A" (CharAt var35 175)))
(assert (= "A" (CharAt var22 65)))
(assert (= "d" (CharAt var35 443)))
(assert (= ")" (CharAt var0 570)))
(assert (= "5" (CharAt var32 532)))
(assert (= "#" (CharAt var29 927)))
(assert (= "Y" (CharAt var36 210)))
(assert (= "r" (CharAt var59 463)))
(assert (= "P" (CharAt var18 804)))
(assert (= "O" (CharAt var11 767)))
(assert (= "&" (CharAt var48 622)))
(assert (= "c" (CharAt var3 897)))
(assert (= "t" (CharAt var30 417)))
(assert (= "l" (CharAt var46 308)))
(assert (= "e" (CharAt var8 687)))
(assert (= "*" (CharAt var57 100)))
(assert (= "W" (CharAt var37 859)))
(assert (= "." (CharAt var40 371)))
(assert (= "\\" (CharAt var30 819)))
(assert (= "k" (CharAt var55 742)))
(assert (= "n" (CharAt var29 798)))
(assert (= "5" (CharAt var21 926)))
(assert (= "8" (CharAt var12 978)))
(assert (= "/" (CharAt var45 483)))
(assert (= "," (CharAt var45 911)))
(assert (= "~" (CharAt var5 438)))
(assert (= "=" (CharAt var60 574)))
(assert (= "$" (CharAt var50 31)))
(assert (= "O" (CharAt var13 231)))
(assert (= "r" (CharAt var11 275)))
(assert (= "a" (CharAt var18 37)))
(assert (= "`" (CharAt var32 77)))
(assert (= "8" (CharAt var2 287)))
(assert (= "_" (CharAt var8 797)))
(assert (= "w" (CharAt var21 142)))
(assert (= "o" (CharAt var2 599)))
(assert (= "Y" (CharAt var41 538)))
(assert (= "J" (CharAt var43 446)))
(assert (= "e" (CharAt var49 200)))
(assert (= "@" (CharAt var30 203)))
(assert (= "&" (CharAt var10 808)))
(assert (= "I" (CharAt var39 826)))
(assert (= "o" (CharAt var25 472)))
(assert (= "S" (CharAt var53 486)))
(assert (= "p" (CharAt var22 13)))
(assert (= "g" (CharAt var2 526)))
(assert (= "z" (CharAt var56 359)))
(assert (= "q" (CharAt var22 160)))
(assert (= "+" (CharAt var59 838)))
(assert (= "F" (CharAt var18 585)))
(assert (= "7" (CharAt var44 71)))
(assert (= "W" (CharAt var54 459)))
(assert (= "V" (CharAt var3 485)))
(assert (= "R" (CharAt var39 851)))
(assert (= "H" (CharAt var26 545)))
(assert (= "o" (CharAt var53 483)))
(assert (= "F" (CharAt var49 165)))
(assert (= "V" (CharAt var29 415)))
(assert (= "i" (CharAt var31 516)))
(assert (= "w" (CharAt var56 619)))
(assert (= ">" (CharAt var35 537)))
(assert (= "i" (CharAt var40 189)))
(assert (= "L" (CharAt var22 154)))
(assert (= "`" (CharAt var3 74)))
(assert (= "," (CharAt var6 207)))
(assert (= "y" (CharAt var38 999)))
(assert (= "l" (CharAt var24 490)))
(assert (= "-" (CharAt var39 763)))
(assert (= "R" (CharAt var43 821)))
(assert (= "L" (CharAt var48 602)))
(assert (= "'" (CharAt var37 890)))
(assert (= "u" (CharAt var46 70)))
(assert (= "b" (CharAt var29 988)))
(assert (= "Z" (CharAt var31 207)))
(assert (= "o" (CharAt var54 294)))
(assert (= "k" (CharAt var40 739)))
(assert (= "+" (CharAt var22 783)))
(assert (= "3" (CharAt var33 585)))
(assert (= "z" (CharAt var23 539)))
(assert (= "$" (CharAt var42 694)))
(assert (= "z" (CharAt var59 4)))
(assert (= "~" (CharAt var56 487)))
(assert (= "\"" (CharAt var8 372)))
(assert (= "?" (CharAt var20 510)))
(assert (= "7" (CharAt var2 750)))
(assert (= "Q" (CharAt var13 376)))
(assert (= "8" (CharAt var43 268)))
(assert (= "J" (CharAt var10 867)))
(assert (= "m" (CharAt var19 918)))
(assert (= "I" (CharAt var21 740)))
(assert (= "D" (CharAt var31 957)))
(assert (= "s" (CharAt var14 238)))
(assert (= "l" (CharAt var14 631)))
(assert (= "l" (CharAt var39 108)))
(assert (= "o" (CharAt var58 857)))
(assert (= "S" (CharAt var3 996)))
(assert (= "}" (CharAt var29 232)))
(assert (= "P" (CharAt var43 551)))
(assert (= "{" (CharAt var47 389)))
(assert (= "d" (CharAt var32 729)))
(assert (= ";" (CharAt var12 963)))
(assert (= "Q" (CharAt var46 263)))
(assert (= "[" (CharAt var34 915)))
(assert (= "k" (CharAt var43 894)))
(assert (= "6" (CharAt var17 740)))
(assert (= "9" (CharAt var23 420)))
(assert (= ":" (CharAt var52 935)))
(assert (= "B" (CharAt var3 645)))
(assert (= "/" (CharAt var6 530)))
(assert (= "h" (CharAt var57 825)))
(assert (= "S" (CharAt var31 981)))
(assert (= "X" (CharAt var60 100)))
(assert (= "T" (CharAt var25 521)))
(assert (= "[" (CharAt var60 229)))
(assert (= "i" (CharAt var44 770)))
(assert (= "O" (CharAt var54 807)))
(assert (= "Q" (CharAt var20 964)))
(assert (= "e" (CharAt var47 247)))
(assert (= "S" (CharAt var44 240)))
(assert (= "\"" (CharAt var0 232)))
(assert (= "V" (CharAt var57 932)))
(assert (= "3" (CharAt var6 840)))
(assert (= "Y" (CharAt var5 483)))
(assert (= "M" (CharAt var55 631)))
(assert (= "s" (CharAt var44 729)))
(assert (= "c" (CharAt var2 218)))
(assert (= "J" (CharAt var17 97)))
(assert (= "D" (CharAt var12 571)))
(assert (= "V" (CharAt var19 304)))
(assert (= "W" (CharAt var14 560)))
(assert (= "A" (CharAt var34 822)))
(assert (= "`" (CharAt var22 694)))
(assert (= "P" (CharAt var3 780)))
(assert (= "r" (CharAt var38 422)))
(assert (= "^" (CharAt var21 897)))
(assert (= "Y" (CharAt var27 5)))
(assert (= "X" (CharAt var13 426)))
(assert (= "A" (CharAt var26 199)))
(assert (= "D" (CharAt var26 406)))
(assert (= "L" (CharAt var56 756)))
(assert (= "J" (CharAt var25 333)))
(assert (= "2" (CharAt var33 917)))
(assert (= ">" (CharAt var39 914)))
(assert (= "." (CharAt var55 90)))
(assert (= "k" (CharAt var59 432)))
(assert (= "C" (CharAt var43 745)))
(assert (= "1" (CharAt var42 751)))
(assert (= "S" (CharAt var50 905)))
(assert (= "c" (CharAt var20 384)))
(assert (= ")" (CharAt var26 261)))
(assert (= "~" (CharAt var48 720)))
(assert (= "+" (CharAt var33 913)))
(assert (= "W" (CharAt var27 354)))
(assert (= "C" (CharAt var3 179)))
(assert (= "i" (CharAt var4 818)))
(assert (= "\"" (CharAt var37 211)))
(assert (= "-" (CharAt var7 151)))
(assert (= "2" (CharAt var3 431)))
(assert (= "{" (CharAt var13 498)))
(assert (= "l" (CharAt var25 996)))
(assert (= "D" (CharAt var60 365)))
(assert (= "L" (CharAt var39 324)))
(assert (= ":" (CharAt var9 763)))
(assert (= "+" (CharAt var5 318)))
(assert (= "o" (CharAt var57 708)))
(assert (= "e" (CharAt var14 151)))
(assert (= "M" (CharAt var42 691)))
(assert (= "9" (CharAt var14 683)))
(assert (= "~" (CharAt var10 901)))
(assert (= "0" (CharAt var57 541)))
(assert (= "v" (CharAt var16 414)))
(assert (= "#" (CharAt var5 331)))
(assert (= "b" (CharAt var13 807)))
(assert (= "Z" (CharAt var57 568)))
(assert (= "G" (CharAt var56 563)))
(assert (= "S" (CharAt var6 13)))
(assert (= "f" (CharAt var24 779)))
(assert (= "8" (CharAt var55 45)))
(assert (= "3" (CharAt var4 496)))
(assert (= "-" (CharAt var42 167)))
(assert (= ":" (CharAt var53 769)))
(assert (= "i" (CharAt var54 284)))
(assert (= "J" (CharAt var12 450)))
(assert (= "m" (CharAt var38 678)))
(assert (= "j" (CharAt var45 639)))
(assert (= "\"" (CharAt var41 847)))
(assert (= "#" (CharAt var56 577)))
(assert (= "." (CharAt var25 555)))
(assert (= "4" (CharAt var19 661)))
(assert (= "X" (CharAt var45 221)))
(assert (= "n" (CharAt var15 991)))
(assert (= "d" (CharAt var47 546)))
(assert (= "_" (CharAt var21 427)))
(assert (= "y" (CharAt var25 107)))
(assert (= "Z" (CharAt var56 279)))
(assert (= "N" (CharAt var47 831)))
(assert (= "W" (CharAt var56 146)))
(assert (= "." (CharAt var39 937)))
(assert (= "2" (CharAt var3 205)))
(assert (= "H" (CharAt var21 32)))
(assert (= "4" (CharAt var16 328)))
(assert (= "n" (CharAt var46 718)))
(assert (= "\"" (CharAt var0 843)))
(assert (= "{" (CharAt var36 37)))
(assert (= "6" (CharAt var30 486)))
(assert (= "d" (CharAt var50 663)))
(assert (= ";" (CharAt var43 814)))
(assert (= "H" (CharAt var56 468)))
(assert (= "7" (CharAt var33 856)))
(assert (= "{" (CharAt var32 844)))
(assert (= "J" (CharAt var44 199)))
(assert (= "n" (CharAt var58 78)))
(assert (= "m" (CharAt var10 722)))
(assert (= "G" (CharAt var29 624)))
(assert (= "-" (CharAt var33 674)))
(assert (= "=" (CharAt var21 249)))
(assert (= "t" (CharAt var2 34)))
(assert (= "D" (CharAt var44 473)))
(assert (= ">" (CharAt var10 997)))
(assert (= "j" (CharAt var14 569)))
(assert (= "}" (CharAt var20 301)))
(assert (= "q" (CharAt var34 450)))
(assert (= "w" (CharAt var26 430)))
(assert (= "~" (CharAt var40 828)))
(assert (= "t" (CharAt var17 67)))
(assert (= "q" (CharAt var12 988)))
(assert (= "," (CharAt var10 560)))
(assert (= "1" (CharAt var51 936)))
(assert (= "T" (CharAt var18 66)))
(assert (= "q" (CharAt var7 746)))
(assert (= "M" (CharAt var3 913)))
(assert (= "@" (CharAt var56 937)))
(assert (= "V" (CharAt var21 981)))
(assert (= "y" (CharAt var44 910)))
(assert (= "9" (CharAt var45 776)))
(assert (= "o" (CharAt var40 408)))
(assert (= "9" (CharAt var38 857)))
(assert (= "W" (CharAt var37 813)))
(assert (= "V" (CharAt var16 2)))
(assert (= "Q" (CharAt var11 576)))
(assert (= "c" (CharAt var7 60)))
(assert (= "!" (CharAt var52 884)))
(assert (= "E" (CharAt var9 344)))
(assert (= "N" (CharAt var32 958)))
(assert (= "p" (CharAt var59 911)))
(assert (= "J" (CharAt var25 676)))
(assert (= "O" (CharAt var6 63)))
(assert (= "," (CharAt var14 40)))
(assert (= "d" (CharAt var8 833)))
(assert (= "(" (CharAt var52 499)))
(assert (= "1" (CharAt var48 897)))
(assert (= "=" (CharAt var39 56)))
(assert (= "2" (CharAt var37 292)))
(assert (= "*" (CharAt var51 906)))
(assert (= ";" (CharAt var41 233)))
(assert (= "*" (CharAt var22 981)))
(assert (= "L" (CharAt var51 399)))
(assert (= "Z" (CharAt var4 218)))
(assert (= "j" (CharAt var48 221)))
(assert (= "0" (CharAt var44 674)))
(assert (= "F" (CharAt var21 498)))
(assert (= "l" (CharAt var37 7)))
(assert (= "f" (CharAt var10 529)))
(assert (= "y" (CharAt var16 744)))
(assert (= "m" (CharAt var11 495)))
(assert (= "%" (CharAt var40 951)))
(assert (= "8" (CharAt var13 769)))
(assert (= "/" (CharAt var18 801)))
(assert (= "h" (CharAt var1 268)))
(assert (= "[" (CharAt var40 542)))
(assert (= "k" (CharAt var12 868)))
(assert (= "4" (CharAt var42 659)))
(assert (= "\\" (CharAt var8 603)))
(assert (= "a" (CharAt var34 693)))
(assert (= "q" (CharAt var5 929)))
(assert (= "C" (CharAt var13 745)))
(assert (= "u" (CharAt var21 914)))
(assert (= "x" (CharAt var7 354)))
(assert (= "m" (CharAt var13 460)))
(assert (= "v" (CharAt var15 911)))
(assert (= "<" (CharAt var13 505)))
(assert (= "f" (CharAt var52 610)))
(assert (= "(" (CharAt var50 547)))
(assert (= "X" (CharAt var36 10)))
(assert (= "z" (CharAt var23 928)))
(assert (= ":" (CharAt var27 969)))
(assert (= "Y" (CharAt var19 715)))
(assert (= "~" (CharAt var51 396)))
(assert (= "(" (CharAt var41 16)))
(assert (= "(" (CharAt var0 515)))
(assert (= "/" (CharAt var56 829)))
(assert (= "t" (CharAt var21 65)))
(assert (= "J" (CharAt var17 134)))
(assert (= "S" (CharAt var56 601)))
(assert (= "9" (CharAt var20 818)))
(assert (= "3" (CharAt var3 387)))
(assert (= "U" (CharAt var49 866)))
(assert (= "p" (CharAt var16 252)))
(assert (= "J" (CharAt var11 794)))
(assert (= "y" (CharAt var3 807)))
(assert (= "y" (CharAt var27 313)))
(assert (= "1" (CharAt var7 791)))
(assert (= "y" (CharAt var17 255)))
(assert (= "6" (CharAt var1 996)))
(assert (= "!" (CharAt var17 272)))
(assert (= "\\" (CharAt var20 823)))
(assert (= "i" (CharAt var31 652)))
(assert (= ";" (CharAt var25 343)))
(assert (= "C" (CharAt var10 726)))
(assert (= "\"" (CharAt var14 609)))
(assert (= "," (CharAt var0 364)))
(assert (= "B" (CharAt var24 794)))
(assert (= "N" (CharAt var31 64)))
(assert (= "K" (CharAt var55 322)))
(assert (= "c" (CharAt var37 81)))
(assert (= "M" (CharAt var5 317)))
(assert (= "e" (CharAt var40 549)))
(assert (= "<" (CharAt var23 32)))
(assert (= "f" (CharAt var14 374)))
(assert (= "@" (CharAt var6 952)))
(assert (= "A" (CharAt var7 468)))
(assert (= "(" (CharAt var11 986)))
(assert (= "D" (CharAt var30 555)))
(assert (= "m" (CharAt var3 590)))
(assert (= "0" (CharAt var5 933)))
(assert (= "S" (CharAt var14 575)))
(assert (= "Q" (CharAt var53 192)))
(assert (= "q" (CharAt var14 846)))
(assert (= "." (CharAt var2 666)))
(assert (= "0" (CharAt var19 680)))
(assert (= "." (CharAt var0 139)))
(assert (= "L" (CharAt var1 513)))
(assert (= "U" (CharAt var28 12)))
(assert (= "F" (CharAt var5 584)))
(assert (= ">" (CharAt var38 840)))
(assert (= "X" (CharAt var60 418)))
(assert (= "j" (CharAt var7 145)))
(assert (= "[" (CharAt var25 399)))
(assert (= "q" (CharAt var34 117)))
(assert (= "q" (CharAt var4 873)))
(assert (= "-" (CharAt var42 304)))
(assert (= "9" (CharAt var45 554)))
(assert (= "4" (CharAt var7 294)))
(assert (= "v" (CharAt var36 889)))
(assert (= "r" (CharAt var20 834)))
(assert (= "^" (CharAt var12 593)))
(assert (= "F" (CharAt var45 556)))
(assert (= ">" (CharAt var35 382)))
(assert (= "p" (CharAt var18 432)))
(assert (= "p" (CharAt var58 953)))
(assert (= "j" (CharAt var2 93)))
(assert (= "." (CharAt var27 820)))
(assert (= "r" (CharAt var1 70)))
(assert (= "4" (CharAt var36 266)))
(assert (= "F" (CharAt var2 404)))
(assert (= "E" (CharAt var31 159)))
(assert (= "c" (CharAt var51 740)))
(assert (= "`" (CharAt var52 527)))
(assert (= "l" (CharAt var49 415)))
(assert (= "@" (CharAt var12 276)))
(assert (= "|" (CharAt var14 416)))
(assert (= "I" (CharAt var28 986)))
(assert (= "e" (CharAt var14 31)))
(assert (= "`" (CharAt var48 449)))
(assert (= "B" (CharAt var30 535)))
(assert (= "j" (CharAt var3 424)))
(assert (= "^" (CharAt var11 316)))
(assert (= "y" (CharAt var41 457)))
(assert (= "=" (CharAt var46 973)))
(assert (= "3" (CharAt var1 180)))
(assert (= "G" (CharAt var50 711)))
(assert (= "^" (CharAt var6 978)))
(assert (= ";" (CharAt var60 552)))
(assert (= "S" (CharAt var0 886)))
(assert (= "u" (CharAt var14 417)))
(assert (= "`" (CharAt var19 255)))
(assert (= "f" (CharAt var27 606)))
(assert (= "." (CharAt var46 456)))
(assert (= "3" (CharAt var17 610)))
(assert (= ":" (CharAt var41 796)))
(assert (= "K" (CharAt var43 404)))
(assert (= "?" (CharAt var4 749)))
(assert (= "," (CharAt var43 784)))
(assert (= "m" (CharAt var42 772)))
(assert (= "6" (CharAt var42 567)))
(assert (= "r" (CharAt var54 877)))
(assert (= "N" (CharAt var34 401)))
(assert (= "n" (CharAt var40 700)))
(assert (= "u" (CharAt var12 274)))
(assert (= "V" (CharAt var40 855)))
(assert (= "X" (CharAt var23 949)))
(assert (= "U" (CharAt var11 835)))
(assert (= "v" (CharAt var28 46)))
(assert (= "m" (CharAt var15 207)))
(assert (= "H" (CharAt var40 821)))
(assert (= "b" (CharAt var14 856)))
(assert (= "$" (CharAt var20 199)))
(assert (= "|" (CharAt var48 214)))
(assert (= "n" (CharAt var23 11)))
(assert (= "%" (CharAt var18 64)))
(assert (= "Y" (CharAt var60 867)))
(assert (= "~" (CharAt var48 436)))
(assert (= "s" (CharAt var20 364)))
(assert (= "%" (CharAt var40 154)))
(assert (= "9" (CharAt var6 580)))
(assert (= ">" (CharAt var59 577)))
(assert (= "*" (CharAt var52 507)))
(assert (= "E" (CharAt var4 735)))
(assert (= "G" (CharAt var28 20)))
(assert (= "I" (CharAt var44 406)))
(assert (= "I" (CharAt var17 48)))
(assert (= "]" (CharAt var52 753)))
(assert (= "x" (CharAt var49 711)))
(assert (= "<" (CharAt var12 594)))
(assert (= "n" (CharAt var18 220)))
(assert (= "," (CharAt var5 347)))
(assert (= "G" (CharAt var19 772)))
(assert (= "\"" (CharAt var21 0)))
(assert (= "M" (CharAt var34 468)))
(assert (= "n" (CharAt var14 527)))
(assert (= "n" (CharAt var54 514)))
(assert (= "D" (CharAt var14 200)))
(assert (= "s" (CharAt var25 795)))
(assert (= "p" (CharAt var11 177)))
(assert (= "m" (CharAt var41 690)))
(assert (= "x" (CharAt var2 507)))
(assert (= "3" (CharAt var31 55)))
(assert (= "d" (CharAt var27 817)))
(assert (= "L" (CharAt var41 673)))
(assert (= "!" (CharAt var45 486)))
(assert (= "5" (CharAt var10 868)))
(assert (= "Z" (CharAt var49 55)))
(assert (= "r" (CharAt var40 499)))
(assert (= ")" (CharAt var50 668)))
(assert (= "+" (CharAt var48 715)))
(assert (= "M" (CharAt var36 648)))
(assert (= "M" (CharAt var56 769)))
(assert (= ">" (CharAt var59 560)))
(assert (= "o" (CharAt var42 440)))
(assert (= "0" (CharAt var51 385)))
(assert (= "c" (CharAt var46 906)))
(assert (= "{" (CharAt var15 170)))
(assert (= "z" (CharAt var4 955)))
(assert (= "-" (CharAt var60 628)))
(assert (= "v" (CharAt var12 471)))
(assert (= "x" (CharAt var4 907)))
(assert (= "(" (CharAt var9 991)))
(assert (= "z" (CharAt var33 414)))
(assert (= "L" (CharAt var50 403)))
(assert (= "b" (CharAt var5 939)))
(assert (= "E" (CharAt var32 878)))
(assert (= "O" (CharAt var13 714)))
(assert (= "r" (CharAt var15 556)))
(assert (= "h" (CharAt var31 239)))
(assert (= "f" (CharAt var5 650)))
(assert (= "~" (CharAt var2 417)))
(assert (= "L" (CharAt var2 203)))
(assert (= "U" (CharAt var57 597)))
(assert (= "P" (CharAt var22 673)))
(assert (= "(" (CharAt var9 761)))
(assert (= "$" (CharAt var41 237)))
(assert (= "'" (CharAt var56 801)))
(assert (= "O" (CharAt var14 785)))
(assert (= "y" (CharAt var25 315)))
(assert (= "d" (CharAt var3 964)))
(assert (= "X" (CharAt var19 634)))
(assert (= "x" (CharAt var45 75)))
(assert (= "n" (CharAt var57 27)))
(assert (= "@" (CharAt var24 930)))
(assert (= "n" (CharAt var3 169)))
(assert (= "c" (CharAt var16 733)))
(assert (= "Q" (CharAt var7 475)))
(assert (= "}" (CharAt var31 521)))
(assert (= "P" (CharAt var28 24)))
(assert (= "r" (CharAt var34 982)))
(assert (= "|" (CharAt var23 760)))
(assert (= "{" (CharAt var52 609)))
(assert (= "h" (CharAt var37 463)))
(assert (= ":" (CharAt var39 560)))
(assert (= "U" (CharAt var40 921)))
(assert (= "?" (CharAt var7 329)))
(assert (= "{" (CharAt var32 605)))
(assert (= "O" (CharAt var44 637)))
(assert (= "$" (CharAt var20 374)))
(assert (= "O" (CharAt var37 408)))
(assert (= "m" (CharAt var9 44)))
(assert (= "g" (CharAt var16 518)))
(assert (= "J" (CharAt var13 119)))
(assert (= "H" (CharAt var47 298)))
(assert (= "9" (CharAt var46 287)))
(assert (= "}" (CharAt var33 165)))
(assert (= "|" (CharAt var53 439)))
(assert (= "<" (CharAt var43 97)))
(assert (= "+" (CharAt var18 187)))
(assert (= "t" (CharAt var50 506)))
(assert (= "c" (CharAt var42 140)))
(assert (= "*" (CharAt var28 248)))
(assert (= "6" (CharAt var46 656)))
(assert (= "A" (CharAt var6 858)))
(assert (= "Y" (CharAt var60 436)))
(assert (= "*" (CharAt var54 345)))
(assert (= "y" (CharAt var7 609)))
(assert (= "g" (CharAt var32 263)))
(assert (= "u" (CharAt var3 45)))
(assert (= "g" (CharAt var27 263)))
(assert (= "3" (CharAt var58 415)))
(assert (= "a" (CharAt var24 856)))
(assert (= "A" (CharAt var41 857)))
(assert (= "s" (CharAt var1 426)))
(assert (= "T" (CharAt var60 90)))
(assert (= "m" (CharAt var27 144)))
(assert (= "R" (CharAt var39 457)))
(assert (= "Z" (CharAt var44 988)))
(assert (= "K" (CharAt var1 186)))
(assert (= "X" (CharAt var44 521)))
(assert (= "Y" (CharAt var37 788)))
(assert (= "f" (CharAt var40 791)))
(assert (= "`" (CharAt var16 128)))
(assert (= "X" (CharAt var38 4)))
(assert (= "g" (CharAt var14 61)))
(assert (= "0" (CharAt var12 285)))
(assert (= "N" (CharAt var6 418)))
(assert (= "Q" (CharAt var44 226)))
(assert (= "X" (CharAt var48 369)))
(assert (= "p" (CharAt var32 202)))
(assert (= "H" (CharAt var37 694)))
(assert (= "&" (CharAt var20 37)))
(assert (= "1" (CharAt var49 883)))
(assert (= "\"" (CharAt var6 474)))
(assert (= "b" (CharAt var45 166)))
(assert (= "F" (CharAt var16 95)))
(assert (= "y" (CharAt var49 730)))
(assert (= "_" (CharAt var28 131)))
(check-sat)